c Circuit-CNF generated by TG-PRO v1.0 (c) Huan Chen and Joao Marques-Silva
p cnf 631 1698
-1 2 0
1 -2 0
-3 4 0
3 -4 0
-5 6 0
5 -6 0
-7 8 0
7 -8 0
-9 10 0
9 -10 0
-11 12 0
11 -12 0
-13 14 0
13 -14 0
-15 16 0
15 -16 0
-17 18 0
17 -18 0
-19 20 0
19 -20 0
-21 22 0
21 -22 0
-23 24 0
23 -24 0
-25 26 0
25 -26 0
-27 28 0
27 -28 0
-29 30 0
29 -30 0
-31 32 0
31 -32 0
-33 34 0
33 -34 0
-35 36 0
35 -36 0
-37 38 0
37 -38 0
-39 40 0
39 -40 0
-41 42 0
41 -42 0
-43 44 0
43 -44 0
-45 46 0
45 -46 0
-47 48 0
47 -48 0
-49 50 0
49 -50 0
-51 52 0
51 -52 0
-53 54 0
53 -54 0
-55 56 0
55 -56 0
-57 58 0
57 -58 0
-59 60 0
59 -60 0
-61 62 0
61 -62 0
-63 64 0
63 -64 0
-65 66 0
-65 67 0
65 -66 -67 0
-68 69 0
-68 67 0
68 -69 -67 0
-70 71 0
-70 67 0
70 -71 -67 0
-72 73 0
-72 67 0
72 -73 -67 0
-74 75 0
-74 67 0
74 -75 -67 0
-76 77 0
-76 67 0
76 -77 -67 0
-78 79 0
-78 67 0
78 -79 -67 0
-80 81 0
-80 67 0
80 -81 -67 0
82 83 0
82 84 0
-82 -83 -84 0
85 86 0
85 87 0
-85 -86 -87 0
88 89 0
88 90 0
-88 -89 -90 0
91 92 0
91 93 0
-91 -92 -93 0
94 95 0
94 96 0
-94 -95 -96 0
97 98 0
97 99 0
-97 -98 -99 0
100 101 0
100 102 0
-100 -101 -102 0
103 104 0
103 105 0
-103 -104 -105 0
106 107 0
106 108 0
-106 -107 -108 0
109 110 0
109 111 0
-109 -110 -111 0
112 113 0
112 114 0
-112 -113 -114 0
115 116 0
115 117 0
-115 -116 -117 0
118 119 0
118 120 0
-118 -119 -120 0
121 122 0
121 123 0
-121 -122 -123 0
124 125 0
124 126 0
-124 -125 -126 0
127 128 0
127 129 0
-127 -128 -129 0
130 83 0
130 89 0
-130 -83 -89 0
131 95 0
131 101 0
-131 -95 -101 0
132 84 0
132 90 0
-132 -84 -90 0
133 96 0
133 102 0
-133 -96 -102 0
134 86 0
134 92 0
-134 -86 -92 0
135 98 0
135 104 0
-135 -98 -104 0
136 87 0
136 93 0
-136 -87 -93 0
137 99 0
137 105 0
-137 -99 -105 0
138 107 0
138 113 0
-138 -107 -113 0
139 119 0
139 125 0
-139 -119 -125 0
140 108 0
140 114 0
-140 -108 -114 0
141 120 0
141 126 0
-141 -120 -126 0
142 110 0
142 116 0
-142 -110 -116 0
143 122 0
143 128 0
-143 -122 -128 0
144 111 0
144 117 0
-144 -111 -117 0
145 123 0
145 129 0
-145 -123 -129 0
146 83 0
146 82 0
-146 -83 -82 0
147 84 0
147 82 0
-147 -84 -82 0
148 86 0
148 85 0
-148 -86 -85 0
149 87 0
149 85 0
-149 -87 -85 0
150 89 0
150 88 0
-150 -89 -88 0
151 90 0
151 88 0
-151 -90 -88 0
152 92 0
152 91 0
-152 -92 -91 0
153 93 0
153 91 0
-153 -93 -91 0
154 95 0
154 94 0
-154 -95 -94 0
155 96 0
155 94 0
-155 -96 -94 0
156 98 0
156 97 0
-156 -98 -97 0
157 99 0
157 97 0
-157 -99 -97 0
158 101 0
158 100 0
-158 -101 -100 0
159 102 0
159 100 0
-159 -102 -100 0
160 104 0
160 103 0
-160 -104 -103 0
161 105 0
161 103 0
-161 -105 -103 0
162 107 0
162 106 0
-162 -107 -106 0
163 108 0
163 106 0
-163 -108 -106 0
164 110 0
164 109 0
-164 -110 -109 0
165 111 0
165 109 0
-165 -111 -109 0
166 113 0
166 112 0
-166 -113 -112 0
167 114 0
167 112 0
-167 -114 -112 0
168 116 0
168 115 0
-168 -116 -115 0
169 117 0
169 115 0
-169 -117 -115 0
170 119 0
170 118 0
-170 -119 -118 0
171 120 0
171 118 0
-171 -120 -118 0
172 122 0
172 121 0
-172 -122 -121 0
173 123 0
173 121 0
-173 -123 -121 0
174 125 0
174 124 0
-174 -125 -124 0
175 126 0
175 124 0
-175 -126 -124 0
176 128 0
176 127 0
-176 -128 -127 0
177 129 0
177 127 0
-177 -129 -127 0
178 83 0
178 130 0
-178 -83 -130 0
179 89 0
179 130 0
-179 -89 -130 0
180 95 0
180 131 0
-180 -95 -131 0
181 101 0
181 131 0
-181 -101 -131 0
182 84 0
182 132 0
-182 -84 -132 0
183 90 0
183 132 0
-183 -90 -132 0
184 96 0
184 133 0
-184 -96 -133 0
185 102 0
185 133 0
-185 -102 -133 0
186 86 0
186 134 0
-186 -86 -134 0
187 92 0
187 134 0
-187 -92 -134 0
188 98 0
188 135 0
-188 -98 -135 0
189 104 0
189 135 0
-189 -104 -135 0
190 87 0
190 136 0
-190 -87 -136 0
191 93 0
191 136 0
-191 -93 -136 0
192 99 0
192 137 0
-192 -99 -137 0
193 105 0
193 137 0
-193 -105 -137 0
194 107 0
194 138 0
-194 -107 -138 0
195 113 0
195 138 0
-195 -113 -138 0
196 119 0
196 139 0
-196 -119 -139 0
197 125 0
197 139 0
-197 -125 -139 0
198 108 0
198 140 0
-198 -108 -140 0
199 114 0
199 140 0
-199 -114 -140 0
200 120 0
200 141 0
-200 -120 -141 0
201 126 0
201 141 0
-201 -126 -141 0
202 110 0
202 142 0
-202 -110 -142 0
203 116 0
203 142 0
-203 -116 -142 0
204 122 0
204 143 0
-204 -122 -143 0
205 128 0
205 143 0
-205 -128 -143 0
206 111 0
206 144 0
-206 -111 -144 0
207 117 0
207 144 0
-207 -117 -144 0
208 123 0
208 145 0
-208 -123 -145 0
209 129 0
209 145 0
-209 -129 -145 0
210 146 0
210 147 0
-210 -146 -147 0
211 148 0
211 149 0
-211 -148 -149 0
212 150 0
212 151 0
-212 -150 -151 0
213 152 0
213 153 0
-213 -152 -153 0
214 154 0
214 155 0
-214 -154 -155 0
215 156 0
215 157 0
-215 -156 -157 0
216 158 0
216 159 0
-216 -158 -159 0
217 160 0
217 161 0
-217 -160 -161 0
218 162 0
218 163 0
-218 -162 -163 0
219 164 0
219 165 0
-219 -164 -165 0
220 166 0
220 167 0
-220 -166 -167 0
221 168 0
221 169 0
-221 -168 -169 0
222 170 0
222 171 0
-222 -170 -171 0
223 172 0
223 173 0
-223 -172 -173 0
224 174 0
224 175 0
-224 -174 -175 0
225 176 0
225 177 0
-225 -176 -177 0
226 178 0
226 179 0
-226 -178 -179 0
227 180 0
227 181 0
-227 -180 -181 0
228 182 0
228 183 0
-228 -182 -183 0
229 184 0
229 185 0
-229 -184 -185 0
230 186 0
230 187 0
-230 -186 -187 0
231 188 0
231 189 0
-231 -188 -189 0
232 190 0
232 191 0
-232 -190 -191 0
233 192 0
233 193 0
-233 -192 -193 0
234 194 0
234 195 0
-234 -194 -195 0
235 196 0
235 197 0
-235 -196 -197 0
236 198 0
236 199 0
-236 -198 -199 0
237 200 0
237 201 0
-237 -200 -201 0
238 202 0
238 203 0
-238 -202 -203 0
239 204 0
239 205 0
-239 -204 -205 0
240 206 0
240 207 0
-240 -206 -207 0
241 208 0
241 209 0
-241 -208 -209 0
242 210 0
242 211 0
-242 -210 -211 0
243 212 0
243 213 0
-243 -212 -213 0
244 214 0
244 215 0
-244 -214 -215 0
245 216 0
245 217 0
-245 -216 -217 0
246 218 0
246 219 0
-246 -218 -219 0
247 220 0
247 221 0
-247 -220 -221 0
248 222 0
248 223 0
-248 -222 -223 0
249 224 0
249 225 0
-249 -224 -225 0
250 226 0
250 227 0
-250 -226 -227 0
251 228 0
251 229 0
-251 -228 -229 0
252 230 0
252 231 0
-252 -230 -231 0
253 232 0
253 233 0
-253 -232 -233 0
254 234 0
254 235 0
-254 -234 -235 0
255 236 0
255 237 0
-255 -236 -237 0
256 238 0
256 239 0
-256 -238 -239 0
257 240 0
257 241 0
-257 -240 -241 0
258 210 0
258 242 0
-258 -210 -242 0
259 211 0
259 242 0
-259 -211 -242 0
260 212 0
260 243 0
-260 -212 -243 0
261 213 0
261 243 0
-261 -213 -243 0
262 214 0
262 244 0
-262 -214 -244 0
263 215 0
263 244 0
-263 -215 -244 0
264 216 0
264 245 0
-264 -216 -245 0
265 217 0
265 245 0
-265 -217 -245 0
266 218 0
266 246 0
-266 -218 -246 0
267 219 0
267 246 0
-267 -219 -246 0
268 220 0
268 247 0
-268 -220 -247 0
269 221 0
269 247 0
-269 -221 -247 0
270 222 0
270 248 0
-270 -222 -248 0
271 223 0
271 248 0
-271 -223 -248 0
272 224 0
272 249 0
-272 -224 -249 0
273 225 0
273 249 0
-273 -225 -249 0
274 226 0
274 250 0
-274 -226 -250 0
275 227 0
275 250 0
-275 -227 -250 0
276 228 0
276 251 0
-276 -228 -251 0
277 229 0
277 251 0
-277 -229 -251 0
278 230 0
278 252 0
-278 -230 -252 0
279 231 0
279 252 0
-279 -231 -252 0
280 232 0
280 253 0
-280 -232 -253 0
281 233 0
281 253 0
-281 -233 -253 0
282 234 0
282 254 0
-282 -234 -254 0
283 235 0
283 254 0
-283 -235 -254 0
284 236 0
284 255 0
-284 -236 -255 0
285 237 0
285 255 0
-285 -237 -255 0
286 238 0
286 256 0
-286 -238 -256 0
287 239 0
287 256 0
-287 -239 -256 0
288 240 0
288 257 0
-288 -240 -257 0
289 241 0
289 257 0
-289 -241 -257 0
290 258 0
290 259 0
-290 -258 -259 0
291 260 0
291 261 0
-291 -260 -261 0
292 262 0
292 263 0
-292 -262 -263 0
293 264 0
293 265 0
-293 -264 -265 0
294 266 0
294 267 0
-294 -266 -267 0
295 268 0
295 269 0
-295 -268 -269 0
296 270 0
296 271 0
-296 -270 -271 0
297 272 0
297 273 0
-297 -272 -273 0
298 274 0
298 275 0
-298 -274 -275 0
299 276 0
299 277 0
-299 -276 -277 0
300 278 0
300 279 0
-300 -278 -279 0
301 280 0
301 281 0
-301 -280 -281 0
302 282 0
302 283 0
-302 -282 -283 0
303 284 0
303 285 0
-303 -284 -285 0
304 286 0
304 287 0
-304 -286 -287 0
305 288 0
305 289 0
-305 -288 -289 0
306 290 0
306 291 0
-306 -290 -291 0
307 292 0
307 293 0
-307 -292 -293 0
308 290 0
308 292 0
-308 -290 -292 0
309 291 0
309 293 0
-309 -291 -293 0
310 294 0
310 295 0
-310 -294 -295 0
311 296 0
311 297 0
-311 -296 -297 0
312 294 0
312 296 0
-312 -294 -296 0
313 295 0
313 297 0
-313 -295 -297 0
314 290 0
314 306 0
-314 -290 -306 0
315 291 0
315 306 0
-315 -291 -306 0
316 292 0
316 307 0
-316 -292 -307 0
317 293 0
317 307 0
-317 -293 -307 0
318 290 0
318 308 0
-318 -290 -308 0
319 292 0
319 308 0
-319 -292 -308 0
320 291 0
320 309 0
-320 -291 -309 0
321 293 0
321 309 0
-321 -293 -309 0
322 294 0
322 310 0
-322 -294 -310 0
323 295 0
323 310 0
-323 -295 -310 0
324 296 0
324 311 0
-324 -296 -311 0
325 297 0
325 311 0
-325 -297 -311 0
326 294 0
326 312 0
-326 -294 -312 0
327 296 0
327 312 0
-327 -296 -312 0
328 295 0
328 313 0
-328 -295 -313 0
329 297 0
329 313 0
-329 -297 -313 0
330 314 0
330 315 0
-330 -314 -315 0
331 316 0
331 317 0
-331 -316 -317 0
332 318 0
332 319 0
-332 -318 -319 0
333 320 0
333 321 0
-333 -320 -321 0
334 322 0
334 323 0
-334 -322 -323 0
335 324 0
335 325 0
-335 -324 -325 0
336 326 0
336 327 0
-336 -326 -327 0
337 328 0
337 329 0
-337 -328 -329 0
338 65 0
338 334 0
-338 -65 -334 0
339 68 0
339 335 0
-339 -68 -335 0
340 70 0
340 336 0
-340 -70 -336 0
341 72 0
341 337 0
-341 -72 -337 0
342 74 0
342 330 0
-342 -74 -330 0
343 76 0
343 331 0
-343 -76 -331 0
344 78 0
344 332 0
-344 -78 -332 0
345 80 0
345 333 0
-345 -80 -333 0
346 65 0
346 338 0
-346 -65 -338 0
347 334 0
347 338 0
-347 -334 -338 0
348 68 0
348 339 0
-348 -68 -339 0
349 335 0
349 339 0
-349 -335 -339 0
350 70 0
350 340 0
-350 -70 -340 0
351 336 0
351 340 0
-351 -336 -340 0
352 72 0
352 341 0
-352 -72 -341 0
353 337 0
353 341 0
-353 -337 -341 0
354 74 0
354 342 0
-354 -74 -342 0
355 330 0
355 342 0
-355 -330 -342 0
356 76 0
356 343 0
-356 -76 -343 0
357 331 0
357 343 0
-357 -331 -343 0
358 78 0
358 344 0
-358 -78 -344 0
359 332 0
359 344 0
-359 -332 -344 0
360 80 0
360 345 0
-360 -80 -345 0
361 333 0
361 345 0
-361 -333 -345 0
362 346 0
362 347 0
-362 -346 -347 0
363 348 0
363 349 0
-363 -348 -349 0
364 350 0
364 351 0
-364 -350 -351 0
365 352 0
365 353 0
-365 -352 -353 0
366 354 0
366 355 0
-366 -354 -355 0
367 356 0
367 357 0
-367 -356 -357 0
368 358 0
368 359 0
-368 -358 -359 0
369 360 0
369 361 0
-369 -360 -361 0
370 298 0
370 362 0
-370 -298 -362 0
371 299 0
371 363 0
-371 -299 -363 0
372 300 0
372 364 0
-372 -300 -364 0
373 301 0
373 365 0
-373 -301 -365 0
374 302 0
374 366 0
-374 -302 -366 0
375 303 0
375 367 0
-375 -303 -367 0
376 304 0
376 368 0
-376 -304 -368 0
377 305 0
377 369 0
-377 -305 -369 0
378 298 0
378 370 0
-378 -298 -370 0
379 362 0
379 370 0
-379 -362 -370 0
380 299 0
380 371 0
-380 -299 -371 0
381 363 0
381 371 0
-381 -363 -371 0
382 300 0
382 372 0
-382 -300 -372 0
383 364 0
383 372 0
-383 -364 -372 0
384 301 0
384 373 0
-384 -301 -373 0
385 365 0
385 373 0
-385 -365 -373 0
386 302 0
386 374 0
-386 -302 -374 0
387 366 0
387 374 0
-387 -366 -374 0
388 303 0
388 375 0
-388 -303 -375 0
389 367 0
389 375 0
-389 -367 -375 0
390 304 0
390 376 0
-390 -304 -376 0
391 368 0
391 376 0
-391 -368 -376 0
392 305 0
392 377 0
-392 -305 -377 0
393 369 0
393 377 0
-393 -369 -377 0
394 378 0
394 379 0
-394 -378 -379 0
395 380 0
395 381 0
-395 -380 -381 0
396 382 0
396 383 0
-396 -382 -383 0
397 384 0
397 385 0
-397 -384 -385 0
398 388 0
398 389 0
-398 -388 -389 0
399 392 0
399 393 0
-399 -392 -393 0
400 390 0
400 391 0
-400 -390 -391 0
401 386 0
401 387 0
-401 -386 -387 0
402 394 0
-402 -394 0
403 395 0
-403 -395 0
404 396 0
-404 -396 0
405 394 0
-405 -394 0
406 395 0
-406 -395 0
407 397 0
-407 -397 0
408 394 0
-408 -394 0
409 396 0
-409 -396 0
410 397 0
-410 -397 0
411 395 0
-411 -395 0
412 396 0
-412 -396 0
413 397 0
-413 -397 0
414 398 0
-414 -398 0
415 399 0
-415 -399 0
416 398 0
-416 -398 0
417 400 0
-417 -400 0
418 401 0
-418 -401 0
419 399 0
-419 -399 0
420 401 0
-420 -401 0
421 400 0
-421 -400 0
422 401 0
-422 -401 0
423 398 0
-423 -398 0
424 400 0
-424 -400 0
425 401 0
-425 -401 0
426 398 0
-426 -398 0
427 399 0
-427 -399 0
428 401 0
-428 -401 0
429 400 0
-429 -400 0
430 399 0
-430 -399 0
431 398 0
-431 -398 0
432 400 0
-432 -400 0
433 399 0
-433 -399 0
434 395 0
-434 -395 0
435 397 0
-435 -397 0
436 395 0
-436 -395 0
437 396 0
-437 -396 0
438 394 0
-438 -394 0
439 397 0
-439 -397 0
440 394 0
-440 -394 0
441 396 0
-441 -396 0
-442 443 0
-442 397 0
442 -443 -397 0
-444 445 0
-444 407 0
444 -445 -407 0
-446 447 0
-446 410 0
446 -447 -410 0
-448 449 0
-448 413 0
448 -449 -413 0
-450 451 0
-450 399 0
450 -451 -399 0
-452 453 0
-452 427 0
452 -453 -427 0
-454 455 0
-454 430 0
454 -455 -430 0
-456 457 0
-456 433 0
456 -457 -433 0
458 -459 0
458 -448 0
-458 459 448 0
460 -461 0
460 -456 0
-460 461 456 0
-462 463 0
-462 458 0
462 -463 -458 0
-464 465 0
-464 458 0
464 -465 -458 0
-466 467 0
-466 458 0
466 -467 -458 0
-468 469 0
-468 458 0
468 -469 -458 0
-470 471 0
-470 460 0
470 -471 -460 0
-472 473 0
-472 460 0
472 -473 -460 0
-474 475 0
-474 460 0
474 -475 -460 0
-476 477 0
-476 460 0
476 -477 -460 0
-478 394 0
-478 462 0
478 -394 -462 0
-479 395 0
-479 462 0
479 -395 -462 0
-480 396 0
-480 462 0
480 -396 -462 0
-481 397 0
-481 462 0
481 -397 -462 0
-482 394 0
-482 464 0
482 -394 -464 0
-483 395 0
-483 464 0
483 -395 -464 0
-484 396 0
-484 464 0
484 -396 -464 0
-485 397 0
-485 464 0
485 -397 -464 0
-486 394 0
-486 466 0
486 -394 -466 0
-487 395 0
-487 466 0
487 -395 -466 0
-488 396 0
-488 466 0
488 -396 -466 0
-489 397 0
-489 466 0
489 -397 -466 0
-490 394 0
-490 468 0
490 -394 -468 0
-491 395 0
-491 468 0
491 -395 -468 0
-492 396 0
-492 468 0
492 -396 -468 0
-493 397 0
-493 468 0
493 -397 -468 0
-494 401 0
-494 470 0
494 -401 -470 0
-495 398 0
-495 470 0
495 -398 -470 0
-496 400 0
-496 470 0
496 -400 -470 0
-497 399 0
-497 470 0
497 -399 -470 0
-498 401 0
-498 472 0
498 -401 -472 0
-499 398 0
-499 472 0
499 -398 -472 0
-500 400 0
-500 472 0
500 -400 -472 0
-501 399 0
-501 472 0
501 -399 -472 0
-502 401 0
-502 474 0
502 -401 -474 0
-503 398 0
-503 474 0
503 -398 -474 0
-504 400 0
-504 474 0
504 -400 -474 0
-505 399 0
-505 474 0
505 -399 -474 0
-506 401 0
-506 476 0
506 -401 -476 0
-507 398 0
-507 476 0
507 -398 -476 0
-508 400 0
-508 476 0
508 -400 -476 0
-509 399 0
-509 476 0
509 -399 -476 0
510 83 0
510 478 0
-510 -83 -478 0
511 84 0
511 479 0
-511 -84 -479 0
512 86 0
512 480 0
-512 -86 -480 0
513 87 0
513 481 0
-513 -87 -481 0
514 89 0
514 482 0
-514 -89 -482 0
515 90 0
515 483 0
-515 -90 -483 0
516 92 0
516 484 0
-516 -92 -484 0
517 93 0
517 485 0
-517 -93 -485 0
518 95 0
518 486 0
-518 -95 -486 0
519 96 0
519 487 0
-519 -96 -487 0
520 98 0
520 488 0
-520 -98 -488 0
521 99 0
521 489 0
-521 -99 -489 0
522 101 0
522 490 0
-522 -101 -490 0
523 102 0
523 491 0
-523 -102 -491 0
524 104 0
524 492 0
-524 -104 -492 0
525 105 0
525 493 0
-525 -105 -493 0
526 107 0
526 494 0
-526 -107 -494 0
527 108 0
527 495 0
-527 -108 -495 0
528 110 0
528 496 0
-528 -110 -496 0
529 111 0
529 497 0
-529 -111 -497 0
530 113 0
530 498 0
-530 -113 -498 0
531 114 0
531 499 0
-531 -114 -499 0
532 116 0
532 500 0
-532 -116 -500 0
533 117 0
533 501 0
-533 -117 -501 0
534 119 0
534 502 0
-534 -119 -502 0
535 120 0
535 503 0
-535 -120 -503 0
536 122 0
536 504 0
-536 -122 -504 0
537 123 0
537 505 0
-537 -123 -505 0
538 125 0
538 506 0
-538 -125 -506 0
539 126 0
539 507 0
-539 -126 -507 0
540 128 0
540 508 0
-540 -128 -508 0
541 129 0
541 509 0
-541 -129 -509 0
542 83 0
542 510 0
-542 -83 -510 0
543 478 0
543 510 0
-543 -478 -510 0
544 84 0
544 511 0
-544 -84 -511 0
545 479 0
545 511 0
-545 -479 -511 0
546 86 0
546 512 0
-546 -86 -512 0
547 480 0
547 512 0
-547 -480 -512 0
548 87 0
548 513 0
-548 -87 -513 0
549 481 0
549 513 0
-549 -481 -513 0
550 89 0
550 514 0
-550 -89 -514 0
551 482 0
551 514 0
-551 -482 -514 0
552 90 0
552 515 0
-552 -90 -515 0
553 483 0
553 515 0
-553 -483 -515 0
554 92 0
554 516 0
-554 -92 -516 0
555 484 0
555 516 0
-555 -484 -516 0
556 93 0
556 517 0
-556 -93 -517 0
557 485 0
557 517 0
-557 -485 -517 0
558 95 0
558 518 0
-558 -95 -518 0
559 486 0
559 518 0
-559 -486 -518 0
560 96 0
560 519 0
-560 -96 -519 0
561 487 0
561 519 0
-561 -487 -519 0
562 98 0
562 520 0
-562 -98 -520 0
563 488 0
563 520 0
-563 -488 -520 0
564 99 0
564 521 0
-564 -99 -521 0
565 489 0
565 521 0
-565 -489 -521 0
566 101 0
566 522 0
-566 -101 -522 0
567 490 0
567 522 0
-567 -490 -522 0
568 102 0
568 523 0
-568 -102 -523 0
569 491 0
569 523 0
-569 -491 -523 0
570 104 0
570 524 0
-570 -104 -524 0
571 492 0
571 524 0
-571 -492 -524 0
572 105 0
572 525 0
-572 -105 -525 0
573 493 0
573 525 0
-573 -493 -525 0
574 107 0
574 526 0
-574 -107 -526 0
575 494 0
575 526 0
-575 -494 -526 0
576 108 0
576 527 0
-576 -108 -527 0
577 495 0
577 527 0
-577 -495 -527 0
578 110 0
578 528 0
-578 -110 -528 0
579 496 0
579 528 0
-579 -496 -528 0
580 111 0
580 529 0
-580 -111 -529 0
581 497 0
581 529 0
-581 -497 -529 0
582 113 0
582 530 0
-582 -113 -530 0
583 498 0
583 530 0
-583 -498 -530 0
584 114 0
584 531 0
-584 -114 -531 0
585 499 0
585 531 0
-585 -499 -531 0
586 116 0
586 532 0
-586 -116 -532 0
587 500 0
587 532 0
-587 -500 -532 0
588 117 0
588 533 0
-588 -117 -533 0
589 501 0
589 533 0
-589 -501 -533 0
590 119 0
590 534 0
-590 -119 -534 0
591 502 0
591 534 0
-591 -502 -534 0
592 120 0
592 535 0
-592 -120 -535 0
593 503 0
593 535 0
-593 -503 -535 0
594 122 0
594 536 0
-594 -122 -536 0
595 504 0
595 536 0
-595 -504 -536 0
596 123 0
596 537 0
-596 -123 -537 0
597 505 0
597 537 0
-597 -505 -537 0
598 125 0
598 538 0
-598 -125 -538 0
599 506 0
599 538 0
-599 -506 -538 0
600 126 0
600 539 0
-600 -126 -539 0
601 507 0
601 539 0
-601 -507 -539 0
602 128 0
602 540 0
-602 -128 -540 0
603 508 0
603 540 0
-603 -508 -540 0
604 129 0
604 541 0
-604 -129 -541 0
605 509 0
605 541 0
-605 -509 -541 0
2 542 0
2 543 0
-2 -542 -543 0
4 544 0
4 545 0
-4 -544 -545 0
6 546 0
6 547 0
-6 -546 -547 0
8 548 0
8 549 0
-8 -548 -549 0
10 550 0
10 551 0
-10 -550 -551 0
12 552 0
12 553 0
-12 -552 -553 0
14 554 0
14 555 0
-14 -554 -555 0
16 556 0
16 557 0
-16 -556 -557 0
18 558 0
18 559 0
-18 -558 -559 0
20 560 0
20 561 0
-20 -560 -561 0
22 562 0
22 563 0
-22 -562 -563 0
24 564 0
24 565 0
-24 -564 -565 0
26 566 0
26 567 0
-26 -566 -567 0
28 568 0
28 569 0
-28 -568 -569 0
30 570 0
30 571 0
-30 -570 -571 0
32 572 0
32 573 0
-32 -572 -573 0
34 574 0
34 575 0
-34 -574 -575 0
36 576 0
36 577 0
-36 -576 -577 0
38 578 0
38 579 0
-38 -578 -579 0
40 580 0
40 581 0
-40 -580 -581 0
42 582 0
42 583 0
-42 -582 -583 0
44 584 0
44 585 0
-44 -584 -585 0
46 586 0
46 587 0
-46 -586 -587 0
48 588 0
48 589 0
-48 -588 -589 0
50 590 0
50 591 0
-50 -590 -591 0
52 592 0
52 593 0
-52 -592 -593 0
54 594 0
54 595 0
-54 -594 -595 0
56 596 0
56 597 0
-56 -596 -597 0
58 598 0
58 599 0
-58 -598 -599 0
60 600 0
60 601 0
-60 -600 -601 0
62 602 0
62 603 0
-62 -602 -603 0
64 604 0
64 605 0
-64 -604 -605 0
-606 402 0
-606 403 0
606 -402 -403 0
-443 606 0
-443 404 0
443 -606 -404 0
-607 405 0
-607 406 0
607 -405 -406 0
-445 607 0
-445 396 0
445 -607 -396 0
-608 408 0
-608 395 0
608 -408 -395 0
-447 608 0
-447 409 0
447 -608 -409 0
-609 394 0
-609 411 0
609 -394 -411 0
-449 609 0
-449 412 0
449 -609 -412 0
-610 422 0
-610 423 0
610 -422 -423 0
-451 610 0
-451 424 0
451 -610 -424 0
-611 425 0
-611 426 0
611 -425 -426 0
-453 611 0
-453 400 0
453 -611 -400 0
-612 428 0
-612 398 0
612 -428 -398 0
-455 612 0
-455 429 0
455 -612 -429 0
-613 401 0
-613 431 0
613 -401 -431 0
-457 613 0
-457 432 0
457 -613 -432 0
614 -442 0
614 -444 0
-614 442 444 0
459 -614 0
459 -446 0
-459 614 446 0
615 -450 0
615 -452 0
-615 450 452 0
461 -615 0
461 -454 0
-461 615 454 0
-616 401 0
-616 414 0
616 -401 -414 0
-617 616 0
-617 400 0
617 -616 -400 0
-463 617 0
-463 415 0
463 -617 -415 0
-618 401 0
-618 416 0
618 -401 -416 0
-619 618 0
-619 417 0
619 -618 -417 0
-465 619 0
-465 399 0
465 -619 -399 0
-620 418 0
-620 398 0
620 -418 -398 0
-621 620 0
-621 400 0
621 -620 -400 0
-467 621 0
-467 419 0
467 -621 -419 0
-622 420 0
-622 398 0
622 -420 -398 0
-623 622 0
-623 421 0
623 -622 -421 0
-469 623 0
-469 399 0
469 -623 -399 0
-624 394 0
-624 434 0
624 -394 -434 0
-625 624 0
-625 396 0
625 -624 -396 0
-471 625 0
-471 435 0
471 -625 -435 0
-626 394 0
-626 436 0
626 -394 -436 0
-627 626 0
-627 437 0
627 -626 -437 0
-473 627 0
-473 397 0
473 -627 -397 0
-628 438 0
-628 395 0
628 -438 -395 0
-629 628 0
-629 396 0
629 -628 -396 0
-475 629 0
-475 439 0
475 -629 -439 0
-630 440 0
-630 395 0
630 -440 -395 0
-631 630 0
-631 441 0
631 -630 -441 0
-477 631 0
-477 397 0
477 -631 -397 0
